c read Graph
c width = 2
c time = 17 ms
c width = 2
c time = 4910 ms
s td 24 3 26
b 1 1 2 15
b 2 2 3 16
b 3 3 4 17
b 4 4 5 18
b 5 5 6 19
b 6 6 7 20
b 7 7 8 21
b 8 8 9 22
b 9 9 10 23
b 10 10 11 24
b 11 11 12 25
b 12 12 13 26
b 13 12 25 26
b 14 11 24 25
b 15 10 23 24
b 16 9 22 23
b 17 8 21 22
b 18 7 20 21
b 19 6 19 20
b 20 5 18 19
b 21 4 17 18
b 22 3 16 17
b 23 2 15 16
b 24 1 14 15
1 24
1 23
2 23
2 22
3 22
3 21
4 21
4 20
5 20
5 19
6 19
6 18
7 18
7 17
8 17
8 16
9 16
9 15
10 15
10 14
11 14
11 13
12 13
